\ Model Passenger_Mix_Flow
\ LP format - for model browsing. Use MPS format to capture full model detail.
\ Signature: 0x153bfdef752f0b99
Minimize
  42 t_pr[0,artificial] + 65 t_pr[1,artificial] + 68 t_pr[2,artificial]
   + 43 t_pr[3,artificial] + 56 t_pr[4,artificial] + 42 t_pr[5,artificial]
   + 65 t_pr[6,artificial] + 42 t_pr[7,artificial] + 45 t_pr[8,artificial]
   + 46 t_pr[9,artificial] + 57 t_pr[10,artificial]
   + 48 t_pr[11,artificial] + 45 t_pr[12,artificial]
   + 56 t_pr[13,artificial] + 64 t_pr[14,artificial]
   + 107 t_pr[15,artificial] + 126 t_pr[16,artificial]
   + 54 t_pr[17,artificial] + 56 t_pr[18,artificial]
   + 65 t_pr[19,artificial] + 42 t_pr[20,artificial]
   + 56 t_pr[21,artificial] + 52 t_pr[22,artificial]
   + 55 t_pr[23,artificial] + 64 t_pr[24,artificial]
   + 66 t_pr[25,artificial] + 47 t_pr[26,artificial]
   + 51 t_pr[27,artificial] + 50 t_pr[28,artificial]
   + 48 t_pr[29,artificial] + 80 t_pr[30,artificial]
   + 65 t_pr[31,artificial] + 72 t_pr[32,artificial]
   + 63 t_pr[33,artificial] + 71 t_pr[34,artificial]
   + 45 t_pr[35,artificial] + 54 t_pr[36,artificial]
   + 42 t_pr[37,artificial] + 62 t_pr[38,artificial]
   + 54 t_pr[39,artificial] + 173 t_pr[40,artificial]
   + 64 t_pr[41,artificial] + 147 t_pr[42,artificial]
   + 43 t_pr[43,artificial] + 36 t_pr[44,artificial]
   + 61 t_pr[45,artificial] + 37 t_pr[46,artificial]
   + 51 t_pr[47,artificial] + 70 t_pr[48,artificial]
   + 143 t_pr[49,artificial] + 133 t_pr[50,artificial]
   + 82 t_pr[51,artificial] + 111 t_pr[52,artificial]
   + 119 t_pr[53,artificial] + 49 t_pr[54,artificial]
   + 83 t_pr[55,artificial] + 53 t_pr[56,artificial]
   + 83 t_pr[57,artificial] + 99 t_pr[58,artificial]
   + 148 t_pr[59,artificial] + 110 t_pr[60,artificial]
   + 110 t_pr[61,artificial] + 76 t_pr[62,artificial]
   + 69 t_pr[63,artificial] + 176 t_pr[64,artificial]
   + 170 t_pr[65,artificial] + 75 t_pr[66,artificial]
   + 57 t_pr[67,artificial] + 57 t_pr[68,artificial]
   + 82 t_pr[69,artificial] + 48 t_pr[70,artificial]
   + 43 t_pr[71,artificial] + 58 t_pr[72,artificial]
   + 44 t_pr[73,artificial] + 52 t_pr[74,artificial]
   + 120 t_pr[75,artificial] + 121 t_pr[76,artificial]
   + 128 t_pr[77,artificial] + 60 t_pr[78,artificial]
   + 64 t_pr[79,artificial] + 52 t_pr[80,artificial]
   + 159 t_pr[81,artificial] + 45 t_pr[82,artificial]
   + 61 t_pr[83,artificial] + 56 t_pr[84,artificial]
   + 47 t_pr[85,artificial] + 182 t_pr[86,artificial]
   + 45 t_pr[87,artificial] + 55 t_pr[88,artificial]
   + 152 t_pr[89,artificial] + 218 t_pr[90,artificial]
   + 226 t_pr[91,artificial] + 255 t_pr[92,artificial]
   + 183 t_pr[93,artificial] + 213 t_pr[94,artificial]
   + 199 t_pr[95,artificial] + 163 t_pr[96,artificial]
   + 156 t_pr[97,artificial] + 349 t_pr[98,artificial]
   + 185 t_pr[99,artificial] + 251 t_pr[100,artificial]
   + 168 t_pr[101,artificial] + 205 t_pr[102,artificial]
   + 139 t_pr[103,artificial] + 167 t_pr[104,artificial]
   + 126 t_pr[105,artificial] + 192 t_pr[106,artificial]
   + 258 t_pr[107,artificial] + 231 t_pr[108,artificial]
   + 268 t_pr[109,artificial] + 232 t_pr[110,artificial]
   + 210 t_pr[111,artificial] + 238 t_pr[112,artificial]
   + 197 t_pr[113,artificial] + 172 t_pr[114,artificial]
   + 209 t_pr[115,artificial] + 138 t_pr[116,artificial]
   + 139 t_pr[117,artificial] + 166 t_pr[118,artificial]
   + 226 t_pr[119,artificial] + 285 t_pr[120,artificial]
   + 271 t_pr[121,artificial] + 235 t_pr[122,artificial]
   + 251 t_pr[123,artificial] + 228 t_pr[124,artificial]
   + 92.83 t_pr[16,15] + 20.06 t_pr[15,16] + 53.2 t_pr[25,24]
   + 42.22 t_pr[24,25] + 49.08 t_pr[25,26] + 29.84 t_pr[26,25]
   + 47.64 t_pr[25,27] + 51 t_pr[27,25] + 59.84 t_pr[1,3] + 43 t_pr[3,1]
   + 53.66 t_pr[1,7] + 42 t_pr[7,1]
Subject To
 C1_Capacity_SS1002: t_pr[0,artificial] >= 83
 C1_Capacity_SS1031: t_pr[1,artificial] + t_pr[1,3] + t_pr[1,7] >= -97
 C1_Capacity_SS1060: t_pr[2,artificial] >= 15
 C1_Capacity_SS1105: t_pr[3,artificial] - 0.12 t_pr[1,3] + t_pr[3,1] >= 96
 C1_Capacity_SS1134: t_pr[4,artificial] >= -12
 C1_Capacity_SS1161: t_pr[5,artificial] >= -21
 C1_Capacity_SS1197: t_pr[6,artificial] >= -90
 C1_Capacity_SS1225: t_pr[7,artificial] - 0.27 t_pr[1,7] + t_pr[7,1] >= 91
 C1_Capacity_SS1242: t_pr[8,artificial] >= 34
 C1_Capacity_SS1274: t_pr[9,artificial] >= 23
 C1_Capacity_SS1300: t_pr[10,artificial] >= 2
 C1_Capacity_SS1339: t_pr[11,artificial] >= 55
 C1_Capacity_SS1367: t_pr[12,artificial] >= -51
 C1_Capacity_SS1399: t_pr[13,artificial] >= -62
 C1_Capacity_SS1437: t_pr[14,artificial] >= 13
 C1_Capacity_SS1454: t_pr[15,artificial] + t_pr[90,artificial]
   + t_pr[91,artificial] + t_pr[92,artificial] + t_pr[93,artificial]
   - 0.31 t_pr[16,15] + t_pr[15,16] >= 1004
 C1_Capacity_SS1480: t_pr[16,artificial] + t_pr[16,15] - 0.69 t_pr[15,16]
   >= -98
 C1_Capacity_SS1529: t_pr[17,artificial] >= 592
 C1_Capacity_SS1557: t_pr[18,artificial] >= -133
 C1_Capacity_SS1578: t_pr[19,artificial] >= -83
 C1_Capacity_SS1615: t_pr[20,artificial] >= 92
 C1_Capacity_SS1643: t_pr[21,artificial] >= -130
 C1_Capacity_SS1668: t_pr[22,artificial] >= 1
 C1_Capacity_SS1706: t_pr[23,artificial] >= -45
 C1_Capacity_SS1729: t_pr[24,artificial] - 0.2 t_pr[25,24] + t_pr[24,25]
   >= 127
 C1_Capacity_SS1752: t_pr[25,artificial] + t_pr[25,24] - 0.33 t_pr[24,25]
   + t_pr[25,26] - 0.26 t_pr[26,25] + t_pr[25,27] >= -60
 C1_Capacity_SS1793: t_pr[26,artificial] - 0.36 t_pr[25,26] + t_pr[26,25]
   >= 56
 C1_Capacity_SS1816: t_pr[27,artificial] - 0.36 t_pr[25,27] + t_pr[27,25]
   >= 58
 C1_Capacity_SS1848: t_pr[28,artificial] >= 221
 C1_Capacity_SS1881: t_pr[29,artificial] >= -85
 C1_Capacity_SS1911: t_pr[30,artificial] + t_pr[94,artificial]
   + t_pr[95,artificial] + t_pr[96,artificial] + t_pr[97,artificial]
   >= 735
 C1_Capacity_SS1945: t_pr[31,artificial] >= -34
 C1_Capacity_SS1964: t_pr[32,artificial] >= -98
 C1_Capacity_SS1998: t_pr[33,artificial] >= -36
 C1_Capacity_SS2036: t_pr[34,artificial] >= 302
 C1_Capacity_SS2060: t_pr[35,artificial] >= -23
 C1_Capacity_SS2100: t_pr[36,artificial] >= -69
 C1_Capacity_SS2125: t_pr[37,artificial] >= 61
 C1_Capacity_SS2145: t_pr[38,artificial] >= 75
 C1_Capacity_SS2174: t_pr[39,artificial] >= 159
 C1_Capacity_SS2218: t_pr[40,artificial] + t_pr[98,artificial] >= 403
 C1_Capacity_SS2230: t_pr[41,artificial] >= 159
 C1_Capacity_SS2276: t_pr[42,artificial] >= 42
 C1_Capacity_SS2307: t_pr[43,artificial] >= 42
 C1_Capacity_SS2332: t_pr[44,artificial] >= -14
 C1_Capacity_SS2367: t_pr[45,artificial] >= 24
 C1_Capacity_SS2389: t_pr[46,artificial] >= 39
 C1_Capacity_SS2411: t_pr[47,artificial] >= 41
 C1_Capacity_SS2456: t_pr[48,artificial] >= 337
 C1_Capacity_SS2480: t_pr[49,artificial] >= 78
 C1_Capacity_SS2502: t_pr[50,artificial] + t_pr[94,artificial]
   + t_pr[120,artificial] >= 107
 C1_Capacity_SS2543: t_pr[51,artificial] + t_pr[103,artificial]
   + t_pr[111,artificial] + t_pr[116,artificial] >= 508
 C1_Capacity_SS2563: t_pr[52,artificial] + t_pr[90,artificial]
   + t_pr[101,artificial] + t_pr[108,artificial] + t_pr[110,artificial]
   + t_pr[114,artificial] >= 495
 C1_Capacity_SS2610: t_pr[53,artificial] + t_pr[91,artificial]
   + t_pr[95,artificial] + t_pr[121,artificial] >= 846
 C1_Capacity_SS2632: t_pr[54,artificial] >= -57
 C1_Capacity_SS2666: t_pr[55,artificial] + t_pr[117,artificial] >= 81
 C1_Capacity_SS2682: t_pr[56,artificial] >= -23
 C1_Capacity_SS2717: t_pr[57,artificial] + t_pr[96,artificial]
   + t_pr[122,artificial] >= 327
 C1_Capacity_SS2758: t_pr[58,artificial] + t_pr[123,artificial] >= 74
 C1_Capacity_SS2786: t_pr[59,artificial] + t_pr[92,artificial]
   + t_pr[102,artificial] + t_pr[109,artificial] + t_pr[115,artificial]
   >= 683
 C1_Capacity_SS2815: t_pr[60,artificial] + t_pr[99,artificial]
   + t_pr[106,artificial] >= 72
 C1_Capacity_SS2839: t_pr[61,artificial] + t_pr[104,artificial]
   + t_pr[112,artificial] + t_pr[118,artificial] >= 194
 C1_Capacity_SS2874: t_pr[62,artificial] + t_pr[93,artificial]
   + t_pr[97,artificial] + t_pr[124,artificial] >= 143
 C1_Capacity_SS2902: t_pr[63,artificial] + t_pr[105,artificial]
   + t_pr[113,artificial] >= 125
 C1_Capacity_SS2925: t_pr[64,artificial] + t_pr[98,artificial]
   + t_pr[100,artificial] + t_pr[107,artificial] >= 618
 C1_Capacity_SS2959: t_pr[65,artificial] + t_pr[119,artificial] >= 6
 C1_Capacity_SS2986: t_pr[66,artificial] + t_pr[99,artificial]
   + t_pr[100,artificial] >= 73
 C1_Capacity_SS3013: t_pr[67,artificial] + t_pr[101,artificial]
   + t_pr[102,artificial] >= 216
 C1_Capacity_SS3056: t_pr[68,artificial] + t_pr[103,artificial]
   + t_pr[104,artificial] + t_pr[105,artificial] >= 240
 C1_Capacity_SS3087: t_pr[69,artificial] + t_pr[106,artificial]
   + t_pr[107,artificial] >= 208
 C1_Capacity_SS3117: t_pr[70,artificial] >= 55
 C1_Capacity_SS3139: t_pr[71,artificial] >= -14
 C1_Capacity_SS3168: t_pr[72,artificial] >= 17
 C1_Capacity_SS3199: t_pr[73,artificial] >= 72
 C1_Capacity_SS3235: t_pr[74,artificial] >= 2
 C1_Capacity_SS3253: t_pr[75,artificial] + t_pr[108,artificial]
   + t_pr[109,artificial] >= 538
 C1_Capacity_SS3295: t_pr[76,artificial] + t_pr[110,artificial] >= 135
 C1_Capacity_SS3313: t_pr[77,artificial] + t_pr[111,artificial]
   + t_pr[112,artificial] + t_pr[113,artificial] >= 329
 C1_Capacity_SS3354: t_pr[78,artificial] >= 151
 C1_Capacity_SS3382: t_pr[79,artificial] >= -134
 C1_Capacity_SS3417: t_pr[80,artificial] >= 594
 C1_Capacity_SS3437: t_pr[81,artificial] >= 11
 C1_Capacity_SS3474: t_pr[82,artificial] >= 135
 C1_Capacity_SS3500: t_pr[83,artificial] + t_pr[114,artificial]
   + t_pr[115,artificial] >= 133
 C1_Capacity_SS3536: t_pr[84,artificial] + t_pr[116,artificial]
   + t_pr[117,artificial] + t_pr[118,artificial] + t_pr[119,artificial]
   >= 134
 C1_Capacity_SS3555: t_pr[85,artificial] >= 337
 C1_Capacity_SS3580: t_pr[86,artificial] >= 89
 C1_Capacity_SS3628: t_pr[87,artificial] >= 135
 C1_Capacity_SS3643: t_pr[88,artificial] >= 151
 C1_Capacity_SS3673: t_pr[89,artificial] + t_pr[120,artificial]
   + t_pr[121,artificial] + t_pr[122,artificial] + t_pr[123,artificial]
   + t_pr[124,artificial] >= 85
 C2_Demand_0: t_pr[0,0] + t_pr[0,artificial] <= 233
 C2_Demand_1: t_pr[1,1] + t_pr[1,artificial] + t_pr[1,3] + t_pr[1,7] <= 53
 C2_Demand_2: t_pr[2,2] + t_pr[2,artificial] <= 165
 C2_Demand_3: t_pr[3,3] + t_pr[3,artificial] + t_pr[3,1] <= 246
 C2_Demand_4: t_pr[4,4] + t_pr[4,artificial] <= 138
 C2_Demand_5: t_pr[5,5] + t_pr[5,artificial] <= 129
 C2_Demand_6: t_pr[6,6] + t_pr[6,artificial] <= 60
 C2_Demand_7: t_pr[7,7] + t_pr[7,artificial] + t_pr[7,1] <= 241
 C2_Demand_8: t_pr[8,8] + t_pr[8,artificial] <= 184
 C2_Demand_9: t_pr[9,9] + t_pr[9,artificial] <= 173
 C2_Demand_10: t_pr[10,10] + t_pr[10,artificial] <= 152
 C2_Demand_11: t_pr[11,11] + t_pr[11,artificial] <= 205
 C2_Demand_12: t_pr[12,12] + t_pr[12,artificial] <= 99
 C2_Demand_13: t_pr[13,13] + t_pr[13,artificial] <= 88
 C2_Demand_14: t_pr[14,14] + t_pr[14,artificial] <= 163
 C2_Demand_15: t_pr[15,15] + t_pr[15,artificial] + t_pr[15,16] <= 302
 C2_Demand_16: t_pr[16,16] + t_pr[16,artificial] + t_pr[16,15] <= 52
 C2_Demand_17: t_pr[17,17] + t_pr[17,artificial] <= 742
 C2_Demand_18: t_pr[18,18] + t_pr[18,artificial] <= 17
 C2_Demand_19: t_pr[19,19] + t_pr[19,artificial] <= 67
 C2_Demand_20: t_pr[20,20] + t_pr[20,artificial] <= 242
 C2_Demand_21: t_pr[21,21] + t_pr[21,artificial] <= 20
 C2_Demand_22: t_pr[22,22] + t_pr[22,artificial] <= 151
 C2_Demand_23: t_pr[23,23] + t_pr[23,artificial] <= 105
 C2_Demand_24: t_pr[24,24] + t_pr[24,artificial] + t_pr[24,25] <= 277
 C2_Demand_25: t_pr[25,25] + t_pr[25,artificial] + t_pr[25,24]
   + t_pr[25,26] + t_pr[25,27] <= 90
 C2_Demand_26: t_pr[26,26] + t_pr[26,artificial] + t_pr[26,25] <= 206
 C2_Demand_27: t_pr[27,27] + t_pr[27,artificial] + t_pr[27,25] <= 208
 C2_Demand_28: t_pr[28,28] + t_pr[28,artificial] <= 371
 C2_Demand_29: t_pr[29,29] + t_pr[29,artificial] <= 65
 C2_Demand_30: t_pr[30,30] + t_pr[30,artificial] <= 210
 C2_Demand_31: t_pr[31,31] + t_pr[31,artificial] <= 116
 C2_Demand_32: t_pr[32,32] + t_pr[32,artificial] <= 52
 C2_Demand_33: t_pr[33,33] + t_pr[33,artificial] <= 114
 C2_Demand_34: t_pr[34,34] + t_pr[34,artificial] <= 452
 C2_Demand_35: t_pr[35,35] + t_pr[35,artificial] <= 127
 C2_Demand_36: t_pr[36,36] + t_pr[36,artificial] <= 81
 C2_Demand_37: t_pr[37,37] + t_pr[37,artificial] <= 211
 C2_Demand_38: t_pr[38,38] + t_pr[38,artificial] <= 225
 C2_Demand_39: t_pr[39,39] + t_pr[39,artificial] <= 309
 C2_Demand_40: t_pr[40,40] + t_pr[40,artificial] <= 76
 C2_Demand_41: t_pr[41,41] + t_pr[41,artificial] <= 309
 C2_Demand_42: t_pr[42,42] + t_pr[42,artificial] <= 112
 C2_Demand_43: t_pr[43,43] + t_pr[43,artificial] <= 112
 C2_Demand_44: t_pr[44,44] + t_pr[44,artificial] <= 56
 C2_Demand_45: t_pr[45,45] + t_pr[45,artificial] <= 94
 C2_Demand_46: t_pr[46,46] + t_pr[46,artificial] <= 109
 C2_Demand_47: t_pr[47,47] + t_pr[47,artificial] <= 111
 C2_Demand_48: t_pr[48,48] + t_pr[48,artificial] <= 487
 C2_Demand_49: t_pr[49,49] + t_pr[49,artificial] <= 228
 C2_Demand_50: t_pr[50,50] + t_pr[50,artificial] <= 126
 C2_Demand_51: t_pr[51,51] + t_pr[51,artificial] <= 210
 C2_Demand_52: t_pr[52,52] + t_pr[52,artificial] <= 76
 C2_Demand_53: t_pr[53,53] + t_pr[53,artificial] <= 112
 C2_Demand_54: t_pr[54,54] + t_pr[54,artificial] <= 13
 C2_Demand_55: t_pr[55,55] + t_pr[55,artificial] <= 87
 C2_Demand_56: t_pr[56,56] + t_pr[56,artificial] <= 47
 C2_Demand_57: t_pr[57,57] + t_pr[57,artificial] <= 217
 C2_Demand_58: t_pr[58,58] + t_pr[58,artificial] <= 132
 C2_Demand_59: t_pr[59,59] + t_pr[59,artificial] <= 79
 C2_Demand_60: t_pr[60,60] + t_pr[60,artificial] <= 56
 C2_Demand_61: t_pr[61,61] + t_pr[61,artificial] <= 81
 C2_Demand_62: t_pr[62,62] + t_pr[62,artificial] <= 56
 C2_Demand_63: t_pr[63,63] + t_pr[63,artificial] <= 97
 C2_Demand_64: t_pr[64,64] + t_pr[64,artificial] <= 159
 C2_Demand_65: t_pr[65,65] + t_pr[65,artificial] <= 45
 C2_Demand_66: t_pr[66,66] + t_pr[66,artificial] <= 29
 C2_Demand_67: t_pr[67,67] + t_pr[67,artificial] <= 138
 C2_Demand_68: t_pr[68,68] + t_pr[68,artificial] <= 23
 C2_Demand_69: t_pr[69,69] + t_pr[69,artificial] <= 174
 C2_Demand_70: t_pr[70,70] + t_pr[70,artificial] <= 125
 C2_Demand_71: t_pr[71,71] + t_pr[71,artificial] <= 56
 C2_Demand_72: t_pr[72,72] + t_pr[72,artificial] <= 87
 C2_Demand_73: t_pr[73,73] + t_pr[73,artificial] <= 142
 C2_Demand_74: t_pr[74,74] + t_pr[74,artificial] <= 72
 C2_Demand_75: t_pr[75,75] + t_pr[75,artificial] <= 132
 C2_Demand_76: t_pr[76,76] + t_pr[76,artificial] <= 69
 C2_Demand_77: t_pr[77,77] + t_pr[77,artificial] <= 66
 C2_Demand_78: t_pr[78,78] + t_pr[78,artificial] <= 301
 C2_Demand_79: t_pr[79,79] + t_pr[79,artificial] <= 16
 C2_Demand_80: t_pr[80,80] + t_pr[80,artificial] <= 744
 C2_Demand_81: t_pr[81,81] + t_pr[81,artificial] <= 81
 C2_Demand_82: t_pr[82,82] + t_pr[82,artificial] <= 285
 C2_Demand_83: t_pr[83,83] + t_pr[83,artificial] <= 153
 C2_Demand_84: t_pr[84,84] + t_pr[84,artificial] <= 0
 C2_Demand_85: t_pr[85,85] + t_pr[85,artificial] <= 487
 C2_Demand_86: t_pr[86,86] + t_pr[86,artificial] <= 159
 C2_Demand_87: t_pr[87,87] + t_pr[87,artificial] <= 285
 C2_Demand_88: t_pr[88,88] + t_pr[88,artificial] <= 301
 C2_Demand_89: t_pr[89,89] + t_pr[89,artificial] <= 45
 C2_Demand_90: t_pr[90,90] + t_pr[90,artificial] <= 62
 C2_Demand_91: t_pr[91,91] + t_pr[91,artificial] <= 433
 C2_Demand_92: t_pr[92,92] + t_pr[92,artificial] <= 291
 C2_Demand_93: t_pr[93,93] + t_pr[93,artificial] <= 66
 C2_Demand_94: t_pr[94,94] + t_pr[94,artificial] <= 80
 C2_Demand_95: t_pr[95,95] + t_pr[95,artificial] <= 358
 C2_Demand_96: t_pr[96,96] + t_pr[96,artificial] <= 177
 C2_Demand_97: t_pr[97,97] + t_pr[97,artificial] <= 60
 C2_Demand_98: t_pr[98,98] + t_pr[98,artificial] <= 397
 C2_Demand_99: t_pr[99,99] + t_pr[99,artificial] <= 38
 C2_Demand_100: t_pr[100,100] + t_pr[100,artificial] <= 76
 C2_Demand_101: t_pr[101,101] + t_pr[101,artificial] <= 67
 C2_Demand_102: t_pr[102,102] + t_pr[102,artificial] <= 81
 C2_Demand_103: t_pr[103,103] + t_pr[103,artificial] <= 177
 C2_Demand_104: t_pr[104,104] + t_pr[104,artificial] <= 46
 C2_Demand_105: t_pr[105,105] + t_pr[105,artificial] <= 64
 C2_Demand_106: t_pr[106,106] + t_pr[106,artificial] <= 48
 C2_Demand_107: t_pr[107,107] + t_pr[107,artificial] <= 56
 C2_Demand_108: t_pr[108,108] + t_pr[108,artificial] <= 208
 C2_Demand_109: t_pr[109,109] + t_pr[109,artificial] <= 268
 C2_Demand_110: t_pr[110,110] + t_pr[110,artificial] <= 136
 C2_Demand_111: t_pr[111,111] + t_pr[111,artificial] <= 211
 C2_Demand_112: t_pr[112,112] + t_pr[112,artificial] <= 88
 C2_Demand_113: t_pr[113,113] + t_pr[113,artificial] <= 34
 C2_Demand_114: t_pr[114,114] + t_pr[114,artificial] <= 16
 C2_Demand_115: t_pr[115,115] + t_pr[115,artificial] <= 34
 C2_Demand_116: t_pr[116,116] + t_pr[116,artificial] <= 60
 C2_Demand_117: t_pr[117,117] + t_pr[117,artificial] <= 64
 C2_Demand_118: t_pr[118,118] + t_pr[118,artificial] <= 49
 C2_Demand_119: t_pr[119,119] + t_pr[119,artificial] <= 31
 C2_Demand_120: t_pr[120,120] + t_pr[120,artificial] <= 51
 C2_Demand_121: t_pr[121,121] + t_pr[121,artificial] <= 13
 C2_Demand_122: t_pr[122,122] + t_pr[122,artificial] <= 3
 C2_Demand_123: t_pr[123,123] + t_pr[123,artificial] <= 12
 C2_Demand_124: t_pr[124,124] + t_pr[124,artificial] <= 31
 C2_Demand_artificial: t_pr[artificial,artificial] <= 0
 C3_NonNegativity_0_0: t_pr[0,0] >= 0
 C3_NonNegativity_1_1: t_pr[1,1] >= 0
 C3_NonNegativity_2_2: t_pr[2,2] >= 0
 C3_NonNegativity_3_3: t_pr[3,3] >= 0
 C3_NonNegativity_4_4: t_pr[4,4] >= 0
 C3_NonNegativity_5_5: t_pr[5,5] >= 0
 C3_NonNegativity_6_6: t_pr[6,6] >= 0
 C3_NonNegativity_7_7: t_pr[7,7] >= 0
 C3_NonNegativity_8_8: t_pr[8,8] >= 0
 C3_NonNegativity_9_9: t_pr[9,9] >= 0
 C3_NonNegativity_10_10: t_pr[10,10] >= 0
 C3_NonNegativity_11_11: t_pr[11,11] >= 0
 C3_NonNegativity_12_12: t_pr[12,12] >= 0
 C3_NonNegativity_13_13: t_pr[13,13] >= 0
 C3_NonNegativity_14_14: t_pr[14,14] >= 0
 C3_NonNegativity_15_15: t_pr[15,15] >= 0
 C3_NonNegativity_16_16: t_pr[16,16] >= 0
 C3_NonNegativity_17_17: t_pr[17,17] >= 0
 C3_NonNegativity_18_18: t_pr[18,18] >= 0
 C3_NonNegativity_19_19: t_pr[19,19] >= 0
 C3_NonNegativity_20_20: t_pr[20,20] >= 0
 C3_NonNegativity_21_21: t_pr[21,21] >= 0
 C3_NonNegativity_22_22: t_pr[22,22] >= 0
 C3_NonNegativity_23_23: t_pr[23,23] >= 0
 C3_NonNegativity_24_24: t_pr[24,24] >= 0
 C3_NonNegativity_25_25: t_pr[25,25] >= 0
 C3_NonNegativity_26_26: t_pr[26,26] >= 0
 C3_NonNegativity_27_27: t_pr[27,27] >= 0
 C3_NonNegativity_28_28: t_pr[28,28] >= 0
 C3_NonNegativity_29_29: t_pr[29,29] >= 0
 C3_NonNegativity_30_30: t_pr[30,30] >= 0
 C3_NonNegativity_31_31: t_pr[31,31] >= 0
 C3_NonNegativity_32_32: t_pr[32,32] >= 0
 C3_NonNegativity_33_33: t_pr[33,33] >= 0
 C3_NonNegativity_34_34: t_pr[34,34] >= 0
 C3_NonNegativity_35_35: t_pr[35,35] >= 0
 C3_NonNegativity_36_36: t_pr[36,36] >= 0
 C3_NonNegativity_37_37: t_pr[37,37] >= 0
 C3_NonNegativity_38_38: t_pr[38,38] >= 0
 C3_NonNegativity_39_39: t_pr[39,39] >= 0
 C3_NonNegativity_40_40: t_pr[40,40] >= 0
 C3_NonNegativity_41_41: t_pr[41,41] >= 0
 C3_NonNegativity_42_42: t_pr[42,42] >= 0
 C3_NonNegativity_43_43: t_pr[43,43] >= 0
 C3_NonNegativity_44_44: t_pr[44,44] >= 0
 C3_NonNegativity_45_45: t_pr[45,45] >= 0
 C3_NonNegativity_46_46: t_pr[46,46] >= 0
 C3_NonNegativity_47_47: t_pr[47,47] >= 0
 C3_NonNegativity_48_48: t_pr[48,48] >= 0
 C3_NonNegativity_49_49: t_pr[49,49] >= 0
 C3_NonNegativity_50_50: t_pr[50,50] >= 0
 C3_NonNegativity_51_51: t_pr[51,51] >= 0
 C3_NonNegativity_52_52: t_pr[52,52] >= 0
 C3_NonNegativity_53_53: t_pr[53,53] >= 0
 C3_NonNegativity_54_54: t_pr[54,54] >= 0
 C3_NonNegativity_55_55: t_pr[55,55] >= 0
 C3_NonNegativity_56_56: t_pr[56,56] >= 0
 C3_NonNegativity_57_57: t_pr[57,57] >= 0
 C3_NonNegativity_58_58: t_pr[58,58] >= 0
 C3_NonNegativity_59_59: t_pr[59,59] >= 0
 C3_NonNegativity_60_60: t_pr[60,60] >= 0
 C3_NonNegativity_61_61: t_pr[61,61] >= 0
 C3_NonNegativity_62_62: t_pr[62,62] >= 0
 C3_NonNegativity_63_63: t_pr[63,63] >= 0
 C3_NonNegativity_64_64: t_pr[64,64] >= 0
 C3_NonNegativity_65_65: t_pr[65,65] >= 0
 C3_NonNegativity_66_66: t_pr[66,66] >= 0
 C3_NonNegativity_67_67: t_pr[67,67] >= 0
 C3_NonNegativity_68_68: t_pr[68,68] >= 0
 C3_NonNegativity_69_69: t_pr[69,69] >= 0
 C3_NonNegativity_70_70: t_pr[70,70] >= 0
 C3_NonNegativity_71_71: t_pr[71,71] >= 0
 C3_NonNegativity_72_72: t_pr[72,72] >= 0
 C3_NonNegativity_73_73: t_pr[73,73] >= 0
 C3_NonNegativity_74_74: t_pr[74,74] >= 0
 C3_NonNegativity_75_75: t_pr[75,75] >= 0
 C3_NonNegativity_76_76: t_pr[76,76] >= 0
 C3_NonNegativity_77_77: t_pr[77,77] >= 0
 C3_NonNegativity_78_78: t_pr[78,78] >= 0
 C3_NonNegativity_79_79: t_pr[79,79] >= 0
 C3_NonNegativity_80_80: t_pr[80,80] >= 0
 C3_NonNegativity_81_81: t_pr[81,81] >= 0
 C3_NonNegativity_82_82: t_pr[82,82] >= 0
 C3_NonNegativity_83_83: t_pr[83,83] >= 0
 C3_NonNegativity_84_84: t_pr[84,84] >= 0
 C3_NonNegativity_85_85: t_pr[85,85] >= 0
 C3_NonNegativity_86_86: t_pr[86,86] >= 0
 C3_NonNegativity_87_87: t_pr[87,87] >= 0
 C3_NonNegativity_88_88: t_pr[88,88] >= 0
 C3_NonNegativity_89_89: t_pr[89,89] >= 0
 C3_NonNegativity_90_90: t_pr[90,90] >= 0
 C3_NonNegativity_91_91: t_pr[91,91] >= 0
 C3_NonNegativity_92_92: t_pr[92,92] >= 0
 C3_NonNegativity_93_93: t_pr[93,93] >= 0
 C3_NonNegativity_94_94: t_pr[94,94] >= 0
 C3_NonNegativity_95_95: t_pr[95,95] >= 0
 C3_NonNegativity_96_96: t_pr[96,96] >= 0
 C3_NonNegativity_97_97: t_pr[97,97] >= 0
 C3_NonNegativity_98_98: t_pr[98,98] >= 0
 C3_NonNegativity_99_99: t_pr[99,99] >= 0
 C3_NonNegativity_100_100: t_pr[100,100] >= 0
 C3_NonNegativity_101_101: t_pr[101,101] >= 0
 C3_NonNegativity_102_102: t_pr[102,102] >= 0
 C3_NonNegativity_103_103: t_pr[103,103] >= 0
 C3_NonNegativity_104_104: t_pr[104,104] >= 0
 C3_NonNegativity_105_105: t_pr[105,105] >= 0
 C3_NonNegativity_106_106: t_pr[106,106] >= 0
 C3_NonNegativity_107_107: t_pr[107,107] >= 0
 C3_NonNegativity_108_108: t_pr[108,108] >= 0
 C3_NonNegativity_109_109: t_pr[109,109] >= 0
 C3_NonNegativity_110_110: t_pr[110,110] >= 0
 C3_NonNegativity_111_111: t_pr[111,111] >= 0
 C3_NonNegativity_112_112: t_pr[112,112] >= 0
 C3_NonNegativity_113_113: t_pr[113,113] >= 0
 C3_NonNegativity_114_114: t_pr[114,114] >= 0
 C3_NonNegativity_115_115: t_pr[115,115] >= 0
 C3_NonNegativity_116_116: t_pr[116,116] >= 0
 C3_NonNegativity_117_117: t_pr[117,117] >= 0
 C3_NonNegativity_118_118: t_pr[118,118] >= 0
 C3_NonNegativity_119_119: t_pr[119,119] >= 0
 C3_NonNegativity_120_120: t_pr[120,120] >= 0
 C3_NonNegativity_121_121: t_pr[121,121] >= 0
 C3_NonNegativity_122_122: t_pr[122,122] >= 0
 C3_NonNegativity_123_123: t_pr[123,123] >= 0
 C3_NonNegativity_124_124: t_pr[124,124] >= 0
 C3_NonNegativity_artificial_artificial: t_pr[artificial,artificial] >= 0
 C3_NonNegativity_0_artificial: t_pr[0,artificial] >= 0
 C3_NonNegativity_1_artificial: t_pr[1,artificial] >= 0
 C3_NonNegativity_2_artificial: t_pr[2,artificial] >= 0
 C3_NonNegativity_3_artificial: t_pr[3,artificial] >= 0
 C3_NonNegativity_4_artificial: t_pr[4,artificial] >= 0
 C3_NonNegativity_5_artificial: t_pr[5,artificial] >= 0
 C3_NonNegativity_6_artificial: t_pr[6,artificial] >= 0
 C3_NonNegativity_7_artificial: t_pr[7,artificial] >= 0
 C3_NonNegativity_8_artificial: t_pr[8,artificial] >= 0
 C3_NonNegativity_9_artificial: t_pr[9,artificial] >= 0
 C3_NonNegativity_10_artificial: t_pr[10,artificial] >= 0
 C3_NonNegativity_11_artificial: t_pr[11,artificial] >= 0
 C3_NonNegativity_12_artificial: t_pr[12,artificial] >= 0
 C3_NonNegativity_13_artificial: t_pr[13,artificial] >= 0
 C3_NonNegativity_14_artificial: t_pr[14,artificial] >= 0
 C3_NonNegativity_15_artificial: t_pr[15,artificial] >= 0
 C3_NonNegativity_16_artificial: t_pr[16,artificial] >= 0
 C3_NonNegativity_17_artificial: t_pr[17,artificial] >= 0
 C3_NonNegativity_18_artificial: t_pr[18,artificial] >= 0
 C3_NonNegativity_19_artificial: t_pr[19,artificial] >= 0
 C3_NonNegativity_20_artificial: t_pr[20,artificial] >= 0
 C3_NonNegativity_21_artificial: t_pr[21,artificial] >= 0
 C3_NonNegativity_22_artificial: t_pr[22,artificial] >= 0
 C3_NonNegativity_23_artificial: t_pr[23,artificial] >= 0
 C3_NonNegativity_24_artificial: t_pr[24,artificial] >= 0
 C3_NonNegativity_25_artificial: t_pr[25,artificial] >= 0
 C3_NonNegativity_26_artificial: t_pr[26,artificial] >= 0
 C3_NonNegativity_27_artificial: t_pr[27,artificial] >= 0
 C3_NonNegativity_28_artificial: t_pr[28,artificial] >= 0
 C3_NonNegativity_29_artificial: t_pr[29,artificial] >= 0
 C3_NonNegativity_30_artificial: t_pr[30,artificial] >= 0
 C3_NonNegativity_31_artificial: t_pr[31,artificial] >= 0
 C3_NonNegativity_32_artificial: t_pr[32,artificial] >= 0
 C3_NonNegativity_33_artificial: t_pr[33,artificial] >= 0
 C3_NonNegativity_34_artificial: t_pr[34,artificial] >= 0
 C3_NonNegativity_35_artificial: t_pr[35,artificial] >= 0
 C3_NonNegativity_36_artificial: t_pr[36,artificial] >= 0
 C3_NonNegativity_37_artificial: t_pr[37,artificial] >= 0
 C3_NonNegativity_38_artificial: t_pr[38,artificial] >= 0
 C3_NonNegativity_39_artificial: t_pr[39,artificial] >= 0
 C3_NonNegativity_40_artificial: t_pr[40,artificial] >= 0
 C3_NonNegativity_41_artificial: t_pr[41,artificial] >= 0
 C3_NonNegativity_42_artificial: t_pr[42,artificial] >= 0
 C3_NonNegativity_43_artificial: t_pr[43,artificial] >= 0
 C3_NonNegativity_44_artificial: t_pr[44,artificial] >= 0
 C3_NonNegativity_45_artificial: t_pr[45,artificial] >= 0
 C3_NonNegativity_46_artificial: t_pr[46,artificial] >= 0
 C3_NonNegativity_47_artificial: t_pr[47,artificial] >= 0
 C3_NonNegativity_48_artificial: t_pr[48,artificial] >= 0
 C3_NonNegativity_49_artificial: t_pr[49,artificial] >= 0
 C3_NonNegativity_50_artificial: t_pr[50,artificial] >= 0
 C3_NonNegativity_51_artificial: t_pr[51,artificial] >= 0
 C3_NonNegativity_52_artificial: t_pr[52,artificial] >= 0
 C3_NonNegativity_53_artificial: t_pr[53,artificial] >= 0
 C3_NonNegativity_54_artificial: t_pr[54,artificial] >= 0
 C3_NonNegativity_55_artificial: t_pr[55,artificial] >= 0
 C3_NonNegativity_56_artificial: t_pr[56,artificial] >= 0
 C3_NonNegativity_57_artificial: t_pr[57,artificial] >= 0
 C3_NonNegativity_58_artificial: t_pr[58,artificial] >= 0
 C3_NonNegativity_59_artificial: t_pr[59,artificial] >= 0
 C3_NonNegativity_60_artificial: t_pr[60,artificial] >= 0
 C3_NonNegativity_61_artificial: t_pr[61,artificial] >= 0
 C3_NonNegativity_62_artificial: t_pr[62,artificial] >= 0
 C3_NonNegativity_63_artificial: t_pr[63,artificial] >= 0
 C3_NonNegativity_64_artificial: t_pr[64,artificial] >= 0
 C3_NonNegativity_65_artificial: t_pr[65,artificial] >= 0
 C3_NonNegativity_66_artificial: t_pr[66,artificial] >= 0
 C3_NonNegativity_67_artificial: t_pr[67,artificial] >= 0
 C3_NonNegativity_68_artificial: t_pr[68,artificial] >= 0
 C3_NonNegativity_69_artificial: t_pr[69,artificial] >= 0
 C3_NonNegativity_70_artificial: t_pr[70,artificial] >= 0
 C3_NonNegativity_71_artificial: t_pr[71,artificial] >= 0
 C3_NonNegativity_72_artificial: t_pr[72,artificial] >= 0
 C3_NonNegativity_73_artificial: t_pr[73,artificial] >= 0
 C3_NonNegativity_74_artificial: t_pr[74,artificial] >= 0
 C3_NonNegativity_75_artificial: t_pr[75,artificial] >= 0
 C3_NonNegativity_76_artificial: t_pr[76,artificial] >= 0
 C3_NonNegativity_77_artificial: t_pr[77,artificial] >= 0
 C3_NonNegativity_78_artificial: t_pr[78,artificial] >= 0
 C3_NonNegativity_79_artificial: t_pr[79,artificial] >= 0
 C3_NonNegativity_80_artificial: t_pr[80,artificial] >= 0
 C3_NonNegativity_81_artificial: t_pr[81,artificial] >= 0
 C3_NonNegativity_82_artificial: t_pr[82,artificial] >= 0
 C3_NonNegativity_83_artificial: t_pr[83,artificial] >= 0
 C3_NonNegativity_84_artificial: t_pr[84,artificial] >= 0
 C3_NonNegativity_85_artificial: t_pr[85,artificial] >= 0
 C3_NonNegativity_86_artificial: t_pr[86,artificial] >= 0
 C3_NonNegativity_87_artificial: t_pr[87,artificial] >= 0
 C3_NonNegativity_88_artificial: t_pr[88,artificial] >= 0
 C3_NonNegativity_89_artificial: t_pr[89,artificial] >= 0
 C3_NonNegativity_90_artificial: t_pr[90,artificial] >= 0
 C3_NonNegativity_91_artificial: t_pr[91,artificial] >= 0
 C3_NonNegativity_92_artificial: t_pr[92,artificial] >= 0
 C3_NonNegativity_93_artificial: t_pr[93,artificial] >= 0
 C3_NonNegativity_94_artificial: t_pr[94,artificial] >= 0
 C3_NonNegativity_95_artificial: t_pr[95,artificial] >= 0
 C3_NonNegativity_96_artificial: t_pr[96,artificial] >= 0
 C3_NonNegativity_97_artificial: t_pr[97,artificial] >= 0
 C3_NonNegativity_98_artificial: t_pr[98,artificial] >= 0
 C3_NonNegativity_99_artificial: t_pr[99,artificial] >= 0
 C3_NonNegativity_100_artificial: t_pr[100,artificial] >= 0
 C3_NonNegativity_101_artificial: t_pr[101,artificial] >= 0
 C3_NonNegativity_102_artificial: t_pr[102,artificial] >= 0
 C3_NonNegativity_103_artificial: t_pr[103,artificial] >= 0
 C3_NonNegativity_104_artificial: t_pr[104,artificial] >= 0
 C3_NonNegativity_105_artificial: t_pr[105,artificial] >= 0
 C3_NonNegativity_106_artificial: t_pr[106,artificial] >= 0
 C3_NonNegativity_107_artificial: t_pr[107,artificial] >= 0
 C3_NonNegativity_108_artificial: t_pr[108,artificial] >= 0
 C3_NonNegativity_109_artificial: t_pr[109,artificial] >= 0
 C3_NonNegativity_110_artificial: t_pr[110,artificial] >= 0
 C3_NonNegativity_111_artificial: t_pr[111,artificial] >= 0
 C3_NonNegativity_112_artificial: t_pr[112,artificial] >= 0
 C3_NonNegativity_113_artificial: t_pr[113,artificial] >= 0
 C3_NonNegativity_114_artificial: t_pr[114,artificial] >= 0
 C3_NonNegativity_115_artificial: t_pr[115,artificial] >= 0
 C3_NonNegativity_116_artificial: t_pr[116,artificial] >= 0
 C3_NonNegativity_117_artificial: t_pr[117,artificial] >= 0
 C3_NonNegativity_118_artificial: t_pr[118,artificial] >= 0
 C3_NonNegativity_119_artificial: t_pr[119,artificial] >= 0
 C3_NonNegativity_120_artificial: t_pr[120,artificial] >= 0
 C3_NonNegativity_121_artificial: t_pr[121,artificial] >= 0
 C3_NonNegativity_122_artificial: t_pr[122,artificial] >= 0
 C3_NonNegativity_123_artificial: t_pr[123,artificial] >= 0
 C3_NonNegativity_124_artificial: t_pr[124,artificial] >= 0
 C3_NonNegativity_16_15: t_pr[16,15] >= 0
 C3_NonNegativity_15_16: t_pr[15,16] >= 0
 C3_NonNegativity_25_24: t_pr[25,24] >= 0
 C3_NonNegativity_24_25: t_pr[24,25] >= 0
 C3_NonNegativity_25_26: t_pr[25,26] >= 0
 C3_NonNegativity_26_25: t_pr[26,25] >= 0
 C3_NonNegativity_25_27: t_pr[25,27] >= 0
 C3_NonNegativity_27_25: t_pr[27,25] >= 0
 C3_NonNegativity_1_3: t_pr[1,3] >= 0
 C3_NonNegativity_3_1: t_pr[3,1] >= 0
 C3_NonNegativity_1_7: t_pr[1,7] >= 0
 C3_NonNegativity_7_1: t_pr[7,1] >= 0
Bounds
End
